LAMMPS (17 Feb 2022)
units           lj
dimension       3
boundary        f f f
atom_style      bpm/sphere
special_bonds   lj 0.0 1.0 1.0 coul 0.0 1.0 1.0
newton          on off
comm_modify     vel yes cutoff 2.6
lattice         fcc 1.0
Lattice spacing in x,y,z = 1.5874011 1.5874011 1.5874011
region          box block -25 15 -22 22 -22 22
create_box      1 box bond/types 2 extra/bond/per/atom 20 extra/special/per/atom 50
Created orthogonal box = (-39.685026 -34.922823 -34.922823) to (23.811016 34.922823 34.922823)
  1 by 2 by 2 MPI processor grid

region          disk cylinder x 0.0 0.0 20.0 -0.5 0.5
create_atoms    1 region disk
Created 7529 atoms
  using lattice units in orthogonal box = (-39.685026 -34.922823 -34.922823) to (23.811016 34.922823 34.922823)
  create_atoms CPU = 0.002 seconds
group           plate region disk
7529 atoms in group plate

region          ball sphere 8.0 0.0 0.0 6.0
create_atoms    1 region ball
Created 3589 atoms
  using lattice units in orthogonal box = (-39.685026 -34.922823 -34.922823) to (23.811016 34.922823 34.922823)
  create_atoms CPU = 0.001 seconds
group           projectile region ball
3589 atoms in group projectile

displace_atoms  all random 0.1 0.1 0.1 134598738
Displacing atoms ...

neighbor        1.0 bin
pair_style      gran/hooke/history 1.0 NULL 0.5 NULL 0.1 1
pair_coeff      1 1

fix             1 all nve/bpm/sphere

create_bonds    many plate plate 1 0.0 1.5
  generated 0 of 0 mixed pair_coeff terms from geometric mixing rule
Neighbor list info ...
  update every 1 steps, delay 10 steps, check yes
  max neighbors/atom: 2000, page size: 100000
  master list distance cutoff = 2
  ghost atom cutoff = 2.6
  binsize = 1, bins = 64 70 70
  2 neighbor lists, perpetual/occasional/extra = 1 1 0
  (1) command create_bonds, occasional
      attributes: full, newton on
      pair build: full/bin
      stencil: full/bin/3d
      bin: standard
  (2) pair gran/hooke/history, perpetual
      attributes: half, newton on, size, history
      pair build: half/size/bin/newton
      stencil: half/bin/3d
      bin: standard
Added 38559 bonds, new total = 38559
Finding 1-2 1-3 1-4 neighbors ...
  special bond factors lj:    0        1        1       
  special bond factors coul:  0        1        1       
    15 = max # of 1-2 neighbors
   101 = max # of special neighbors
  special bonds CPU = 0.001 seconds
create_bonds    many projectile projectile 2 0.0 1.5
  generated 0 of 0 mixed pair_coeff terms from geometric mixing rule
WARNING: Bonds are defined but no bond style is set (../force.cpp:192)
WARNING: Likewise 1-2 special neighbor interactions != 1.0 (../force.cpp:194)
Added 21869 bonds, new total = 60428
Finding 1-2 1-3 1-4 neighbors ...
  special bond factors lj:    0        1        1       
  special bond factors coul:  0        1        1       
    16 = max # of 1-2 neighbors
   101 = max # of special neighbors
  special bonds CPU = 0.001 seconds

neighbor        0.3 bin
special_bonds   lj 0.0 1.0 1.0 coul 1.0 1.0 1.0

bond_style      bpm/rotational store/local brkbond 100 time id1 id2
bond_coeff      1 1.0 0.2 0.02 0.02 0.05 0.01 0.01 0.01 0.1 0.2 0.002 0.002
bond_coeff      2 1.0 0.2 0.02 0.02 0.20 0.04 0.04 0.04 0.1 0.2 0.002 0.002

velocity        projectile set -0.05 0.0 0.0
compute         nbond all nbond/atom
compute         tbond all reduce sum c_nbond

timestep        0.05
thermo_style    custom step ke pe pxx pyy pzz c_tbond
thermo          100
thermo_modify   lost ignore lost/bond ignore
#dump            1 all custom 100 atomDump id radius x y z c_nbond

dump            2 all local 100 brokenDump f_brkbond[1] f_brkbond[2] f_brkbond[3]
dump_modify     2 header no

run             7500
  generated 0 of 0 mixed pair_coeff terms from geometric mixing rule
Neighbor list info ...
  update every 1 steps, delay 10 steps, check yes
  max neighbors/atom: 2000, page size: 100000
  master list distance cutoff = 1.3
  ghost atom cutoff = 2.6
  binsize = 0.65, bins = 98 108 108
  1 neighbor lists, perpetual/occasional/extra = 1 0 0
  (1) pair gran/hooke/history, perpetual
      attributes: half, newton on, size, history
      pair build: half/size/bin/newton
      stencil: half/bin/3d
      bin: standard
Per MPI rank memory allocation (min/avg/max) = 33.34 | 33.34 | 33.35 Mbytes
Step KinEng PotEng Pxx Pyy Pzz c_tbond 
       0 0.00053238861            0 3.8217307e-05            0            0      10.8703 
     100 0.00053238861            0 3.8217307e-05 1.2166373e-20 1.2308212e-20      10.8703 
     200 0.00053238861            0 3.8217307e-05 1.2454467e-20 1.2479589e-20      10.8703 
     300 0.00053238861            0 3.8217307e-05 1.2256702e-20 1.2621091e-20      10.8703 
     400 0.00053238861            0 3.8217307e-05 1.2170534e-20 1.2751666e-20      10.8703 
     500 0.00053093549            0 3.8484194e-05 7.645531e-08 1.4861825e-07      10.8703 
     600 0.00051485902            0 4.0340751e-05 3.8615876e-07 4.8663463e-07    10.869221 
     700 0.00049942978            0 3.8684008e-05 4.5363318e-07 4.4560229e-07     10.85501 
     800 0.00049465262            0 3.6604612e-05 1.4755468e-07 2.0062093e-07    10.820651 
     900 0.00048784775            0 3.5333139e-05 3.5118328e-07 6.6697625e-07    10.769563 
    1000 0.00048345699            0 3.4702137e-05 7.0312998e-07 4.0218318e-07    10.730347 
    1100 0.00047945073            0 3.5065961e-05 6.2813891e-07 7.4640359e-07    10.703184 
    1200 0.00047512604            0 3.4833144e-05 8.5208604e-07 8.7277583e-07    10.686634 
    1300 0.00047401428            0 3.4236869e-05 1.0321827e-06 7.4545242e-07       10.678 
    1400 0.00047619121            0 3.4416549e-05 8.7518021e-07 7.3979503e-07    10.671704 
    1500 0.0004668728            0 3.4495751e-05 1.4077823e-06 1.517373e-06    10.666127 
    1600 0.00045088371            0 3.3264301e-05 1.8499661e-06 1.9842415e-06     10.66073 
    1700 0.00044275099            0 3.2471064e-05 1.9028747e-06 2.2248947e-06      10.6458 
    1800 0.0004424362            0 3.1846336e-05 1.6208492e-06 1.9291602e-06    10.620615 
    1900 0.00043678957            0 3.1260936e-05 1.4673956e-06 1.6120523e-06    10.603166 
    2000 0.00042747562            0 3.0652107e-05 1.6455486e-06  1.53127e-06    10.576003 
    2100 0.0004214344            0 3.0240727e-05 1.8873967e-06 1.5258622e-06    10.539845 
    2200 0.00041712779            0 3.0329566e-05 1.8846152e-06 1.4971471e-06     10.49937 
    2300 0.00041095769            0 3.0000572e-05 2.3585924e-06 1.6773177e-06    10.471668 
    2400 0.00040883568            0 2.9625158e-05 1.9105554e-06 1.8720763e-06     10.45116 
    2500 0.00040762685            0 2.9441541e-05 1.6848938e-06 1.8877532e-06    10.437309 
    2600 0.00040579873            0 2.9255988e-05 1.7523874e-06 1.636423e-06    10.422378 
    2700 0.00040340975            0 2.9035693e-05 1.673158e-06 1.9038932e-06    10.410505 
    2800 0.00040170914            0 2.8829361e-05 1.6711978e-06 1.9776001e-06    10.400792 
    2900 0.00040015113            0 2.8614186e-05 1.5982427e-06 1.7994733e-06    10.393416 
    3000 0.00040029253            0 2.8470718e-05 1.5589166e-06 1.6682302e-06    10.385321 
    3100 0.00040037329            0 2.8483376e-05 1.2831526e-06 1.4788005e-06    10.378485 
    3200 0.00040142612            0 2.8481287e-05 1.1577988e-06 1.3495778e-06    10.373988 
    3300 0.00040105092            0 2.8547009e-05 1.2155138e-06 1.2633439e-06    10.370031 
    3400 0.00039950673            0 2.8340939e-05 1.1182251e-06 1.1624668e-06    10.364274 
    3500 0.00039715236            0 2.824813e-05 1.3086462e-06 1.2029185e-06    10.360496 
    3600 0.00039446552            0 2.8112283e-05 1.1232321e-06 1.0077217e-06    10.353121 
    3700 0.00039263296            0 2.7927975e-05 1.1083636e-06 1.2091857e-06    10.346645 
    3800 0.00039061341            0 2.7819957e-05 1.1836841e-06 1.3566272e-06    10.341069 
    3900 0.00038985051            0 2.7681947e-05 1.3588359e-06 1.4099727e-06    10.329196 
    4000 0.00038815347            0 2.7492102e-05 1.1111719e-06 1.1700718e-06    10.318043 
    4100 0.00038651302            0 2.7444105e-05 9.9563429e-07 1.4085969e-06    10.311027 
    4200 0.00038565809            0 2.7177341e-05 9.5736307e-07 1.0404482e-06    10.299155 
    4300 0.0003847255            0 2.7029216e-05 9.6204756e-07 1.140804e-06    10.292319 
    4400 0.0003844421            0 2.6841047e-05 9.6570404e-07 1.2319818e-06    10.286203 
    4500 0.0003842788            0 2.6633558e-05 9.6452478e-07 1.1954945e-06    10.278287 
    4600 0.00038365139            0 2.6514403e-05 9.6185846e-07 1.2002452e-06    10.270732 
    4700 0.00038271503            0 2.6374349e-05 9.4061833e-07 1.1774211e-06    10.264796 
    4800 0.00038233688            0 2.638398e-05 1.1644119e-06 1.3746239e-06     10.25742 
    4900 0.00038223496            0 2.6279821e-05 1.1345508e-06 1.4709213e-06    10.246987 
    5000 0.00038219402            0 2.6188871e-05 1.0115151e-06 1.2024203e-06    10.240511 
    5100 0.00038195153            0 2.6137945e-05 1.009856e-06 1.1961088e-06    10.236014 
    5200 0.00038170903            0 2.6103563e-05 1.0046761e-06 1.1881008e-06    10.232236 
    5300 0.00038194303            0 2.6111938e-05 1.0533375e-06 1.2621634e-06    10.230617 
    5400 0.00038147407            0 2.6078641e-05 1.082228e-06 1.2915223e-06    10.230098 
    5500 0.00038156894            0 2.6084488e-05 1.1395485e-06 1.3592644e-06    10.227759 
    5600 0.00038169434            0 2.6085704e-05 1.1173618e-06 1.3003599e-06      10.2256 
    5700 0.00038219734            0 2.6095279e-05 1.1026614e-06 1.280455e-06    10.223621 
    5800 0.00038268758            0 2.6113437e-05 1.1096198e-06 1.2565503e-06    10.222902 
    5900 0.00038300658            0 2.6131709e-05 1.1123595e-06 1.235992e-06    10.222182 
    6000 0.00038250316            0 2.606995e-05 1.1590744e-06 1.2888416e-06    10.221123 
    6100 0.0003821526            0 2.6025605e-05 1.1434025e-06 1.3141861e-06    10.219503 
    6200 0.00038185711            0 2.5991255e-05 1.1471391e-06 1.3427373e-06    10.219503 
    6300 0.00038197679            0 2.5996965e-05 1.1338082e-06 1.3315258e-06    10.218604 
    6400 0.00038232311            0 2.6035805e-05 1.1353407e-06 1.3306683e-06    10.217884 
    6500 0.00038255543            0 2.6091572e-05 1.1768703e-06 1.3629611e-06    10.217704 
    6600 0.00038251887            0 2.6068968e-05 1.1808094e-06 1.3969697e-06    10.217344 
    6700 0.00038177389            0 2.6004288e-05 1.1659866e-06 1.423638e-06    10.218084 
    6800 0.00038096291            0 2.5969494e-05 1.1377343e-06 1.4348787e-06    10.218103 
    6900 0.00038090601            0 2.5951546e-05 1.1327767e-06 1.4311663e-06    10.217024 
    7000 0.00038088094            0 2.5946255e-05 1.1652568e-06 1.4567559e-06    10.215944 
    7100 0.00038094624            0 2.5972593e-05 1.1558871e-06 1.4692935e-06    10.214684 
    7200 0.00038168738            0   2.6002e-05 1.1562707e-06 1.4881081e-06    10.212705 
    7300 0.00038200854            0 2.6038768e-05 1.1339903e-06 1.4808455e-06    10.212345 
    7400 0.00038187543            0 2.6044759e-05 1.101743e-06 1.4758679e-06    10.213084 
    7500 0.00038165297            0 2.6004536e-05 1.0892731e-06 1.4872621e-06    10.214742 
Loop time of 28.804 on 4 procs for 7500 steps with 11111 atoms

Performance: 1124843.305 tau/day, 260.380 timesteps/s
97.5% CPU use with 4 MPI tasks x no OpenMP threads

MPI task timing breakdown:
Section |  min time  |  avg time  |  max time  |%varavg| %total
---------------------------------------------------------------
Pair    | 0.26977    | 0.28058    | 0.2866     |   1.3 |  0.97
Bond    | 22.742     | 23.598     | 24.671     |  16.6 | 81.92
Neigh   | 0.54555    | 0.5728     | 0.60272    |   3.2 |  1.99
Comm    | 1.4024     | 2.5619     | 3.5079     |  54.8 |  8.89
Output  | 0.025307   | 0.025833   | 0.027022   |   0.4 |  0.09
Modify  | 1.592      | 1.6506     | 1.7059     |   4.0 |  5.73
Other   |            | 0.1147     |            |       |  0.40

Nlocal:        2777.75 ave        2887 max        2682 min
Histogram: 1 0 0 0 2 0 0 0 0 1
Nghost:         1152.5 ave        1189 max        1125 min
Histogram: 1 0 1 0 0 1 0 0 0 1
Neighs:        11515.5 ave       12520 max       10831 min
Histogram: 1 1 0 0 1 0 0 0 0 1

Total # of neighbors = 46062
Ave neighs/atom = 4.1456215
Ave special neighs/atom = 10.214742
Neighbor list builds = 408
Dangerous builds = 0
Total wall time: 0:00:28
